; generate_new_pc_son
(declare-fun n_loop () (_ BitVec 32))
(declare-fun magic () (_ BitVec 32))
(let ((?x578 (bvadd (_ bv32 32) (bvnot n_loop))))
(let ((?x637 (bvmul (_ bv4294967295 32) n_loop)))
(let ((?x422 (concat (bvnot ((_ extract 8 7) magic)) ((_ extract 6 5) magic) (bvnot ((_ extract 4 4) magic)) ((_ extract 3 2) magic) (bvnot ((_ extract 1 0) magic)) (bvnot ((_ extract 31 31) magic)) ((_ extract 30 30) magic) (bvnot ((_ extract 29 29) magic)) ((_ extract 28 27) magic) (bvnot ((_ extract 26 25) magic)) ((_ extract 24 24) magic) (bvnot ((_ extract 23 19) magic)) ((_ extract 18 16) magic) (bvnot ((_ extract 15 13) magic)) ((_ extract 12 12) magic) (bvnot ((_ extract 11 11) magic)) ((_ extract 10 10) magic) (bvnot ((_ extract 9 9) magic)))))
(let ((?x588 (bvadd (_ bv3148553738 32) ?x422)))
(let ((?x594 (concat (bvnot ((_ extract 31 31) ?x588)) ((_ extract 30 30) ?x588) (bvnot ((_ extract 29 28) ?x588)) ((_ extract 27 26) ?x588) (bvnot ((_ extract 25 25) ?x588)) ((_ extract 24 24) ?x588) (bvnot ((_ extract 23 18) ?x588)) ((_ extract 17 16) ?x588) (bvnot ((_ extract 15 15) ?x588)) ((_ extract 14 12) ?x588) (bvnot ((_ extract 11 10) ?x588)) ((_ extract 9 8) ?x588) (bvnot ((_ extract 7 6) ?x588)) ((_ extract 5 4) ?x588) (bvnot ((_ extract 3 2) ?x588)) ((_ extract 1 1) ?x588) ((_ extract 9 9) magic))))
(let ((?x569 (bvlshr (bvadd (_ bv4087013032 32) (bvxor ?x594 n_loop)) ?x578)))
(let ((?x567 (bvadd (_ bv1 32) n_loop)))
(let ((?x568 (bvshl (bvadd (_ bv4087013032 32) (bvxor ?x594 n_loop)) ?x567)))
(let ((?x591 (concat (bvnot (bvor ((_ extract 29 0) ?x568) ((_ extract 29 0) ?x569))) (bvnot (bvor ((_ extract 31 30) ?x568) ((_ extract 31 30) ?x569))))))
(let ((?x616 (concat (bvnot (bvor ((_ extract 2 0) ?x568) ((_ extract 2 0) ?x569))) (bvnot (bvor ((_ extract 31 30) ?x568) ((_ extract 31 30) ?x569))))))
(let ((?x604 (concat (bvadd ?x616 (bvmul (_ bv30 5) ((_ extract 4 0) n_loop))) ((_ extract 31 5) (bvadd ?x591 (bvmul (_ bv4294967294 32) n_loop))))))
(let ((?x625 (concat (bvor ((_ extract 12 0) (bvshl ?x604 ?x567)) ((_ extract 12 0) (bvlshr ?x604 ?x578))) (bvor ((_ extract 31 13) (bvshl ?x604 ?x567)) ((_ extract 31 13) (bvlshr ?x604 ?x578))))))
(let ((?x609 (bvshl ?x625 ?x578)))
(let ((?x634 (concat (bvor ((_ extract 19 0) (bvlshr ?x625 ?x567)) ((_ extract 19 0) ?x609)) (bvor ((_ extract 31 20) (bvlshr ?x625 ?x567)) ((_ extract 31 20) ?x609)))))
(let ((?x598 (bvadd (_ bv4244321557 32) ?x634)))
(let ((?x561 (concat ((_ extract 31 31) ?x598) (bvnot ((_ extract 30 30) ?x598)) ((_ extract 29 27) ?x598) (bvnot ((_ extract 26 25) ?x598)) ((_ extract 24 22) ?x598) (bvnot ((_ extract 21 21) ?x598)) ((_ extract 20 17) ?x598) (bvnot ((_ extract 16 15) ?x598)) ((_ extract 14 14) ?x598))))
(let ((?x675 (bvnot (bvadd (_ bv1 1) (bvor ((_ extract 20 20) (bvlshr ?x625 ?x567)) ((_ extract 20 20) ?x609))))))
(let ((?x645 (concat ((_ extract 13 13) ?x598) (bvnot ((_ extract 12 12) ?x598)) ((_ extract 11 10) ?x598) (bvnot ((_ extract 9 7) ?x598)) ((_ extract 6 3) ?x598) (bvnot ((_ extract 2 2) ?x598)) ((_ extract 1 1) ?x598) ?x675)))
(let ((?x639 (concat (bvxor ?x645 ((_ extract 13 0) n_loop)) (bvxor ?x561 ((_ extract 31 14) n_loop)))))
(let ((?x641 (bvshl ?x639 ?x578)))
(let ((?x680 (concat (bvor ((_ extract 2 0) (bvlshr ?x639 ?x567)) ((_ extract 2 0) ?x641)) (bvor ((_ extract 31 3) (bvlshr ?x639 ?x567)) ((_ extract 31 3) ?x641)))))
(let ((?x488 (bvadd (_ bv766460474 32) ?x680 ?x637)))
(let ((?x686 ((_ extract 23 22) ?x488)))
(let ((?x695 (bvnot ((_ extract 24 24) ?x488))))
(let ((?x688 ((_ extract 26 25) ?x488)))
(let ((?x693 (bvnot ((_ extract 28 27) ?x488))))
(let ((?x690 ((_ extract 31 29) ?x488)))
(let ((?x718 (bvadd (bvor ((_ extract 3 3) (bvlshr ?x639 ?x567)) ((_ extract 3 3) ?x641)) ((_ extract 0 0) n_loop))))
(let ((?x703 (bvnot ((_ extract 1 1) ?x488))))
(let ((?x666 ((_ extract 2 2) ?x488)))
(let ((?x711 (bvnot ((_ extract 7 3) ?x488))))
(let ((?x683 (bvnot ((_ extract 9 8) ?x488))))
(let ((?x722 (concat ((_ extract 14 10) ?x488) ?x683 ?x711 ?x666 ?x703 ?x718 ?x690 ?x693 ?x688 ?x695 ?x686)))
(let ((?x707 (concat ((_ extract 17 10) ?x488) ?x683 ?x711 ?x666 ?x703 ?x718 ?x690 ?x693 ?x688 ?x695 ?x686)))
(let ((?x706 (concat (bvnot ((_ extract 21 20) ?x488)) ((_ extract 19 19) ?x488) (bvnot ((_ extract 18 18) ?x488)) ((_ extract 17 10) ?x488) ?x683 ?x711 ?x666 ?x703 ?x718 ?x690 ?x693 ?x688 ?x695 ?x686)))
(let ((?x729 (concat (bvnot ((_ extract 8 8) ?x488)) ?x711 ?x666 ?x703 ?x718 ?x690 ?x693 ?x688 ?x695 ?x686)))
(let ((?x719 (concat (bvadd (_ bv87267 19) ?x729) ((_ extract 31 28) (bvadd (_ bv1674138851 32) ?x706)) ((_ extract 27 25) (bvadd (_ bv63526115 28) ?x707)) ((_ extract 24 19) (bvadd (_ bv29971683 25) ?x722)))))
(let ((?x782 (bvxor ((_ extract 4 3) (bvadd (bvxor ?x719 n_loop) (bvmul (_ bv4294967293 32) n_loop))) ((_ extract 4 3) n_loop))))
(let ((?x735 (bvxor ((_ extract 31 3) (bvadd (bvxor ?x719 n_loop) (bvmul (_ bv4294967293 32) n_loop))) ((_ extract 31 3) n_loop))))
(let ((?x705 ((_ extract 2 0) n_loop)))
(let ((?x745 (bvxor (bvadd (bvxor ((_ extract 21 19) (bvadd (_ bv29971683 25) ?x722)) ?x705) (bvmul (_ bv5 3) ?x705)) ?x705)))
(let ((?x689 (bvadd (_ bv2879051559 32) (concat ?x745 ?x735) (bvmul (_ bv4294967294 32) n_loop))))
(let ((?x789 (concat (bvnot ((_ extract 31 30) ?x689)) ((_ extract 29 28) ?x689) (bvnot ((_ extract 27 25) ?x689)) ((_ extract 24 24) ?x689) (bvnot ((_ extract 23 21) ?x689)) ((_ extract 20 17) ?x689) (bvnot ((_ extract 16 14) ?x689)) ((_ extract 13 12) ?x689) (bvnot ((_ extract 11 10) ?x689)) ((_ extract 9 9) ?x689) (bvnot ((_ extract 8 8) ?x689)) ((_ extract 7 7) ?x689) (bvnot ((_ extract 6 4) ?x689)) ((_ extract 3 2) ?x689) (bvnot (bvadd (_ bv3 2) ?x782 (bvmul (_ bv2 2) ((_ extract 1 0) n_loop)))))))
(let ((?x740 (concat ((_ extract 20 17) ?x689) (bvnot ((_ extract 16 14) ?x689)) ((_ extract 13 12) ?x689) (bvnot ((_ extract 11 10) ?x689)) ((_ extract 9 9) ?x689) (bvnot ((_ extract 8 8) ?x689)) ((_ extract 7 7) ?x689) (bvnot ((_ extract 6 4) ?x689)) ((_ extract 3 2) ?x689) (bvnot (bvadd (_ bv3 2) ?x782 (bvmul (_ bv2 2) ((_ extract 1 0) n_loop)))))))
(let ((?x753 (concat (bvadd ?x740 (bvmul (_ bv2097151 21) ((_ extract 20 0) n_loop))) ((_ extract 31 21) (bvadd ?x789 ?x637)))))
(let ((?x747 (bvlshr (bvadd (bvor (bvshl ?x753 ?x567) (bvlshr ?x753 ?x578)) ?x637) ?x567)))
(let ((?x733 (bvor ?x747 (bvshl (bvadd (bvor (bvshl ?x753 ?x567) (bvlshr ?x753 ?x578)) ?x637) ?x578))))
(let ((?x776 (bvadd (bvor (bvlshr (bvnot ?x733) ?x567) (bvshl (bvnot ?x733) ?x578)) ?x637)))
(let ((?x796 (bvor ((_ extract 9 0) (bvlshr (bvnot ?x733) ?x567)) ((_ extract 9 0) (bvshl (bvnot ?x733) ?x578)))))
(let ((?x797 (bvadd (_ bv4279458689 32) (concat (bvadd ?x796 (bvmul (_ bv1023 10) ((_ extract 9 0) n_loop))) ((_ extract 31 10) ?x776)))))
(let ((?x813 (concat (bvor ((_ extract 12 0) (bvshl ?x797 ?x567)) ((_ extract 12 0) (bvlshr ?x797 ?x578))) (bvor ((_ extract 31 13) (bvshl ?x797 ?x567)) ((_ extract 31 13) (bvlshr ?x797 ?x578))))))
(let ((?x812 (bvor (bvlshr (bvnot (bvadd ?x813 n_loop)) ?x567) (bvshl (bvnot (bvadd ?x813 n_loop)) ?x578))))
(let ((?x814 (bvshl (bvnot (bvor (bvlshr (bvnot ?x812) ?x567) (bvshl (bvnot ?x812) ?x578))) ?x578)))
(let ((?x816 (bvlshr (bvnot (bvor (bvlshr (bvnot ?x812) ?x567) (bvshl (bvnot ?x812) ?x578))) ?x567)))
(let ((?x865 (bvor ((_ extract 0 0) (bvlshr (bvadd (_ bv3619962031 32) (bvnot (bvor ?x816 ?x814)) n_loop) ?x567)) ((_ extract 0 0) (bvshl (bvadd (_ bv3619962031 32) (bvnot (bvor ?x816 ?x814)) n_loop) ?x578)))))
(let ((?x866 (bvadd ?x865 ((_ extract 0 0) n_loop))))
(let ((?x823 (bvor (bvlshr (bvadd (_ bv3619962031 32) (bvnot (bvor ?x816 ?x814)) n_loop) ?x567) (bvshl (bvadd (_ bv3619962031 32) (bvnot (bvor ?x816 ?x814)) n_loop) ?x578))))
(let ((?x824 (bvadd ?x823 n_loop)))
(let ((?x860 (bvnot ((_ extract 4 1) ?x824))))
(let ((?x830 ((_ extract 6 5) ?x824)))
(let ((?x858 (bvnot ((_ extract 7 7) ?x824))))
(let ((?x869 (concat (bvnot ((_ extract 25 25) ?x824)) ((_ extract 24 24) ?x824) (bvnot ((_ extract 23 22) ?x824)) ((_ extract 21 20) ?x824) (bvnot ((_ extract 19 19) ?x824)) ((_ extract 18 16) ?x824) (bvnot ((_ extract 15 13) ?x824)) ((_ extract 12 11) ?x824) (bvnot ((_ extract 10 10) ?x824)) ((_ extract 9 8) ?x824) ?x858 ?x830 ?x860 ?x866)))
(let ((?x867 (concat (bvnot ((_ extract 31 30) ?x824)) ((_ extract 29 29) ?x824) (bvnot ((_ extract 28 25) ?x824)) ((_ extract 24 24) ?x824) (bvnot ((_ extract 23 22) ?x824)) ((_ extract 21 20) ?x824) (bvnot ((_ extract 19 19) ?x824)) ((_ extract 18 16) ?x824) (bvnot ((_ extract 15 13) ?x824)) ((_ extract 12 11) ?x824) (bvnot ((_ extract 10 10) ?x824)) ((_ extract 9 8) ?x824) ?x858 ?x830 ?x860 ?x866)))
(let ((?x878 (concat (bvadd (_ bv231 8) (concat ?x858 ?x830 ?x860 ?x866)) ((_ extract 31 26) (bvadd (_ bv1973145063 32) ?x867)))))
(let ((?x833 (concat (bvxor ?x878 ((_ extract 13 0) n_loop)) (bvxor ((_ extract 25 8) (bvadd (_ bv26988007 26) ?x869)) ((_ extract 31 14) n_loop)))))
(let ((?x844 (bvshl (bvxor (bvor (bvshl ?x833 ?x567) (bvlshr ?x833 ?x578)) n_loop) ?x578)))
(let ((?x872 (bvlshr (bvxor (bvor (bvshl ?x833 ?x567) (bvlshr ?x833 ?x578)) n_loop) ?x567)))
(let ((?x891 (bvor ((_ extract 31 27) (bvshl (bvadd (bvor ?x872 ?x844) n_loop) ?x567)) ((_ extract 31 27) (bvlshr (bvadd (bvor ?x872 ?x844) n_loop) ?x578)))))
(let ((?x886 (bvor ((_ extract 26 0) (bvshl (bvadd (bvor ?x872 ?x844) n_loop) ?x567)) ((_ extract 26 0) (bvlshr (bvadd (bvor ?x872 ?x844) n_loop) ?x578)))))
(let ((?x887 (bvxor (concat ?x886 ?x891) n_loop)))
(let ((?x882 (bvlshr ?x887 ?x578)))
(let ((?x932 (bvxor (bvor ((_ extract 23 19) (bvshl ?x887 ?x567)) ((_ extract 23 19) ?x882)) ((_ extract 23 19) n_loop))))
(let ((?x922 (bvxor (bvor ((_ extract 27 19) (bvshl ?x887 ?x567)) ((_ extract 27 19) ?x882)) ((_ extract 27 19) n_loop))))
(let ((?x909 (bvxor (bvor ((_ extract 31 19) (bvshl ?x887 ?x567)) ((_ extract 31 19) ?x882)) ((_ extract 31 19) n_loop))))
(let ((?x902 (bvxor (bvor ((_ extract 18 0) (bvshl ?x887 ?x567)) ((_ extract 18 0) ?x882)) ((_ extract 18 0) n_loop))))
(let ((?x938 (bvxor (bvor ((_ extract 22 19) (bvshl ?x887 ?x567)) ((_ extract 22 19) ?x882)) ((_ extract 22 19) n_loop))))
(let ((?x925 (concat (bvnot (bvadd (_ bv12 4) ?x938)) (bvnot ((_ extract 31 9) (bvadd (_ bv455150828 32) (concat ?x902 ?x909)))) (bvnot ((_ extract 8 5) (bvadd (_ bv236 9) ?x922))) (bvnot ((_ extract 4 4) (bvadd (_ bv12 5) ?x932))))))
(let ((?x946 (concat (bvnot ((_ extract 31 9) (bvadd (_ bv455150828 32) (concat ?x902 ?x909)))) (bvnot ((_ extract 8 5) (bvadd (_ bv236 9) ?x922))) (bvnot ((_ extract 4 4) (bvadd (_ bv12 5) ?x932))))))
(let ((?x945 (concat (bvnot (bvadd (_ bv52780583 28) (bvxor ?x946 ((_ extract 27 0) n_loop)))) (bvnot ((_ extract 31 28) (bvadd (_ bv321216039 32) (bvxor ?x925 n_loop)))))))
(bvadd (_ bv4196984 32) ?x945))))))))))))))))))))))))))))))))))))))))))))))))))))))))))))))))))))))))))))))))